32	10
18	19	17	15	13	19	12	12	12	19
0	0	0	0	0	0	0	0	0	0	0	1	2
8	0	0	12	0	0	0	0	10	0	0	2	3	31
10	0	0	0	0	2	0	0	0	0	11	1	4
5	0	0	12	0	13	0	0	0	0	0	1	5
9	0	11	0	0	0	0	0	10	0	0	1	6
4	0	0	17	0	0	0	0	0	7	0	1	7
5	0	12	0	0	0	0	12	0	0	0	2	8	30
10	10	0	0	0	0	19	0	0	0	0	1	9
2	18	0	0	0	0	0	0	0	0	19	1	10
2	0	0	0	0	0	14	0	12	0	0	1	11
5	0	0	0	0	0	0	0	0	8	17	1	12
8	0	0	0	0	0	8	0	0	5	0	1	13
7	0	0	2	0	0	0	4	0	0	0	2	14	29
9	0	0	0	0	13	0	12	0	0	0	1	15
6	18	0	0	0	0	0	0	0	12	0	2	16	28
7	0	19	0	0	13	0	0	0	0	0	2	17	27
4	0	0	0	8	0	0	0	0	0	13	2	18	26
8	0	0	0	14	13	0	0	0	0	0	1	19
10	0	0	0	11	0	0	12	0	0	0	1	20
5	0	7	0	0	0	0	0	0	0	14	1	21
7	0	19	0	0	0	0	9	0	0	0	1	22
4	0	0	0	0	0	19	0	1	0	0	1	23
8	6	0	0	0	0	0	0	0	12	0	1	24
4	0	0	17	0	0	19	0	0	0	0	1	25
6	0	0	0	0	0	7	5	0	0	0	1	32
8	0	0	0	0	5	0	0	9	0	0	1	32
4	0	0	0	7	0	0	0	12	0	0	1	32
7	18	18	0	0	0	0	0	0	0	0	1	32
2	11	0	17	0	0	0	0	0	0	0	1	32
7	0	0	0	13	0	0	0	0	10	0	1	32
6	0	0	0	15	0	0	0	0	0	12	1	32
0	0	0	0	0	0	0	0	0	0	0	0
